1737
62 79 20 17 51 37 42 10 84 40 53 2 28 35 38 87 67 89 98 61 43 5 60 30 32 22 13 45 93 76 34 85 70 75 44 11 26 86 25 33 78 15 73 74 57 63 83 72 3 77 66 54 12 50 21 65 23 88 24 29 80 9 55 52 91 36 14 81 16 58 49 99 4 59 6 92 69 7 71 19 48 27 41 95 94 18 47 82 68 56 1 39 90 97 64 31 96 8 46 
